10	5
0	6	4	2	3	6	1	5
1	2	8	10
2	0
3	1	9
4	2	10	7
5	1	11
6	1	8
7	1	11
8	1	11
9	1	11
10	1	11
11	0
0	0	0	0	0	0	0
1	2	0	0	0	0	3
2	5	0	0	1	5	0
3	4	3	5	0	4	2
4	6	1	2	0	0	5
5	10	5	3	0	0	0
6	10	0	0	2	5	5
7	5	5	0	0	5	4
8	1	0	4	0	1	2
9	9	1	0	5	1	0
10	6	0	1	0	0	0
11	0	0	0	0	0	0
5	5	5	5	5
